0 2743
1 2724
2 2724
3 2724
4 2537
5 2537
6 2537
7 2489
8 2387
9 2217
10 2217
11 2217
12 2217
13 2161
14 2161
15 2152
16 2152
17 2152
18 2035
19 2035
20 2035
21 2035
22 1945
23 1945
24 1945
25 1945
26 1945
27 1945
28 1928
29 1928
30 1917
31 1917
32 1915
33 1915
34 1896
35 1870
36 1870
37 1827
38 1827
39 1827
40 1827
41 1827
42 1827
43 1827
44 1827
45 1827
46 1827
47 1827
48 1816
49 1807
50 1807
51 1750
52 1750
53 1747
54 1747
55 1679
56 1679
57 1677
58 1677
59 1677
60 1677
61 1669
62 1669
63 1669
64 1665
65 1603
66 1581
67 1581
68 1579
69 1579
70 1505
71 1505
72 1505
73 1505
74 1505
75 1501
76 1501
77 1488
78 1469
79 1460
80 1443
81 1443
82 1443
83 1436
84 1436
85 1424
86 1424
87 1424
88 1422
89 1422
90 1422
91 1370
92 1370
93 1370
94 1370
95 1370
96 1370
97 1370
98 1370
99 1370
100 1369
101 1369
102 1365
103 1365
104 1365
105 1357
106 1357
107 1357
108 1354
109 1354
110 1354
111 1354
112 1354
113 1354
114 1354
115 1354
116 1354
117 1354
118 1354
119 1354
120 1354
121 1343
122 1343
123 1340
124 1340
125 1340
126 1340
127 1329
128 1329
129 1329
130 1329
131 1329
132 1329
133 1329
134 1324
135 1324
136 1324
137 1324
138 1303
139 1303
140 1263
141 1263
142 1263
143 1253
144 1253
145 1253
146 1253
147 1253
148 1253
149 1253
150 1253
151 1253
152 1253
153 1253
154 1236
155 1236
156 1236
157 1236
158 1236
159 1236
160 1236
161 1236
162 1236
163 1236
164 1236
165 1236
166 1236
167 1236
168 1236
169 1234
170 1230
171 1230
172 1201
173 1201
174 1201
175 1201
176 1201
177 1201
178 1201
179 1201
180 1201
181 1201
182 1201
183 1201
184 1201
185 1201
186 1201
187 1201
188 1201
189 1201
190 1201
191 1201
192 1201
193 1201
194 1201
195 1201
196 1201
197 1189
198 1189
199 1187
200 1187
201 1187
202 1185
203 1185
204 1185
205 1185
206 1185
207 1185
208 1185
209 1185
210 1185
211 1182
212 1182
213 1182
214 1182
215 1182
216 1182
217 1182
218 1182
219 1182
220 1182
221 1182
222 1182
223 1182
224 1182
225 1182
226 1178
227 1178
228 1177
229 1166
230 1166
231 1166
232 1166
233 1166
234 1166
235 1166
236 1166
237 1166
238 1166
239 1166
240 1166
241 1166
242 1166
243 1166
244 1166
245 1166
246 1166
247 1166
248 1166
249 1161
250 1161
251 1161
252 1161
253 1161
254 1161
255 1161
256 1161
257 1161
258 1161
259 1161
260 1161
261 1161
262 1161
263 1161
264 1161
265 1161
266 1161
267 1161
268 1161
269 1161
270 1161
271 1161
272 1161
273 1161
274 1153
275 1153
276 1153
277 1153
278 1153
279 1153
280 1153
281 1153
282 1153
283 1153
284 1153
285 1153
286 1153
287 1153
288 1153
289 1153
290 1150
291 1150
292 1150
293 1150
294 1150
295 1150
296 1150
297 1150
298 1150
299 1150
300 1147
301 1147
302 1147
303 1147
304 1147
305 1147
306 1147
307 1147
308 1147
309 1147
310 1147
311 1147
312 1147
313 1147
314 1141
315 1141
316 1141
317 1137
318 1137
319 1137
320 1137
321 1137
322 1137
323 1130
324 1130
325 1130
326 1130
327 1130
328 1130
329 1123
330 1123
331 1123
332 1123
333 1123
334 1123
335 1123
336 1123
337 1123
338 1117
339 1117
340 1117
341 1117
342 1117
343 1117
344 1117
345 1117
346 1117
347 1117
348 1117
349 1117
350 1117
351 1117
352 1117
353 1117
354 1117
355 1117
356 1116
357 1116
358 1095
359 1095
360 1095
361 1095
362 1095
363 1095
364 1095
365 1056
366 1056
367 1056
368 1056
369 1042
370 1042
371 1027
372 1027
373 1027
374 1027
375 1027
376 1027
377 1027
378 1027
379 1027
380 1027
381 1027
382 1027
383 1010
384 1010
385 1010
386 1010
387 1010
388 1010
389 1010
390 1010
391 1010
392 1010
393 1010
394 1010
395 1010
396 1010
397 1010
398 1010
399 1010
400 994
401 994
402 994
403 994
404 994
405 994
406 994
407 994
408 994
409 994
410 994
411 994
412 994
413 994
414 994
415 994
416 975
417 975
418 975
419 975
420 975
421 975
422 975
423 975
424 975
425 975
426 975
427 975
428 975
429 975
430 975
431 975
432 975
433 975
434 975
435 975
436 975
437 975
438 975
439 975
440 975
441 975
442 975
443 975
444 975
445 975
446 975
447 975
448 975
449 975
450 975
451 975
452 975
453 975
454 975
455 975
456 975
457 975
458 975
459 975
460 975
461 975
462 975
463 975
464 975
465 975
466 975
467 975
468 975
469 975
470 975
471 975
472 975
473 975
474 975
475 975
476 975
477 975
478 975
479 975
480 975
481 975
482 975
483 975
484 974
485 974
486 974
487 974
488 974
489 974
490 974
491 974
492 974
493 974
494 974
495 974
496 974
497 974
498 974
499 974
500 974
501 974
502 974
503 974
504 974
505 974
506 970
507 970
508 970
509 970
510 970
511 970
512 970
513 970
514 970
515 970
516 970
517 970
518 970
519 970
520 970
521 970
522 970
523 970
524 970
525 970
526 970
527 970
528 970
529 970
530 970
531 970
532 970
533 970
534 970
535 970
536 970
537 970
538 958
539 958
540 958
541 958
542 958
543 958
544 958
545 958
546 958
547 958
548 958
549 958
550 958
551 958
552 958
553 958
554 958
555 958
556 958
557 958
558 958
559 958
560 958
561 958
562 958
563 958
564 958
565 958
566 958
567 958
568 958
569 958
570 958
571 958
572 958
573 958
574 958
575 958
576 958
577 958
578 958
579 958
580 958
581 958
582 958
583 958
584 958
585 958
586 958
587 958
588 958
589 958
590 958
591 958
592 958
593 958
594 958
595 958
596 958
597 958
598 958
599 958
600 958
601 958
602 958
603 958
604 958
605 958
606 958
607 958
608 958
609 958
610 958
611 958
612 958
613 958
614 958
615 958
616 958
617 958
618 958
619 958
620 958
621 958
622 958
623 958
624 958
625 958
626 958
627 958
628 958
629 958
630 958
631 958
632 958
633 958
634 955
635 955
636 955
637 955
638 955
639 955
640 955
641 955
642 955
643 955
644 955
645 955
646 955
647 955
648 955
649 955
650 955
651 955
652 955
653 955
654 955
655 955
656 955
657 955
658 946
659 946
660 946
661 946
662 946
663 946
664 946
665 946
666 946
667 946
668 946
669 946
670 946
671 946
672 946
673 946
674 946
675 946
676 946
677 946
678 946
679 946
680 946
681 946
682 946
683 946
684 946
685 946
686 946
687 946
688 946
689 946
690 946
691 946
692 946
693 946
694 946
695 946
696 946
697 946
698 946
699 946
700 946
701 946
702 946
703 946
704 946
705 946
706 946
707 946
708 946
709 946
710 946
711 946
712 946
713 946
714 946
715 946
716 946
717 946
718 946
719 946
720 946
721 946
722 946
723 946
724 946
725 946
726 946
727 946
728 946
729 946
730 946
731 946
732 946
733 946
734 946
735 946
736 946
737 946
738 946
739 946
740 946
741 946
742 946
743 946
744 946
745 946
746 946
747 946
748 946
749 946
750 946
751 946
752 946
753 946
754 946
755 946
756 946
757 946
758 946
759 946
760 946
761 946
762 946
763 946
764 946
765 946
766 946
767 946
768 946
769 946
770 946
771 946
772 946
773 946
774 946
775 946
776 946
777 946
778 946
779 946
780 946
781 946
782 946
783 946
784 946
785 946
786 946
787 946
788 946
789 946
790 946
791 946
792 946
793 946
794 946
795 946
796 946
797 946
798 946
799 946
800 946
801 946
802 946
803 946
804 946
805 946
806 946
807 946
808 946
809 946
810 946
811 946
812 946
813 946
814 946
815 946
816 946
817 946
818 946
819 946
820 946
821 946
822 946
823 946
824 946
825 946
826 946
827 946
828 946
829 946
830 946
831 946
832 946
833 946
834 946
835 946
836 946
837 946
838 946
839 946
840 946
841 946
842 946
843 946
844 946
845 946
846 946
847 946
848 946
849 946
850 946
851 946
852 946
853 946
854 946
855 946
856 946
857 946
858 946
859 946
860 946
861 946
862 946
863 946
864 946
865 946
866 946
867 946
868 946
869 946
870 946
871 946
872 946
873 946
874 946
875 946
876 946
877 946
878 946
879 946
880 946
881 946
882 946
883 946
884 946
885 946
886 946
887 946
888 946
889 946
890 946
891 946
892 946
893 946
894 946
895 946
896 946
897 946
898 946
899 946
900 946
901 946
902 946
903 946
904 946
905 946
906 946
907 946
908 946
909 946
910 946
911 946
912 946
913 946
914 946
915 946
916 946
917 946
918 946
919 946
920 946
921 946
922 946
923 946
924 946
925 946
926 946
927 946
928 946
929 946
930 946
931 946
932 946
933 946
934 946
935 946
936 946
937 946
938 946
939 946
940 946
941 946
942 946
943 946
944 946
945 946
946 946
947 946
948 946
949 946
950 946
951 946
952 946
953 946
954 946
955 946
956 946
957 946
958 946
959 946
960 946
961 946
962 946
963 946
964 946
965 946
966 946
967 946
968 946
969 946
970 946
971 946
972 946
973 946
974 946
975 946
976 946
977 946
978 946
979 946
980 946
981 946
982 946
983 946
984 946
985 946
986 946
987 946
988 946
989 946
990 946
991 946
992 946
993 946
994 946
995 946
996 946
997 946
998 946
999 946
Best: [[31,13,2,17,27,15,25],
       [26,11,16,29,3,8],
       [7,4,24,5,12,9,19,10,23,30,6,21],
       [28,14,18,20,32,22]], fitness: 946
